6 9 19 7 3 15 14 16 13 2 18 17 1 0 8 4 10 12 5 11  
6 18 7 16 2 9 17 13 3 15 14 1 19 0 8 4 10 12 5 11  
6 18 16 7 15 9 17 1 2 3 14 19 13 0 8 4 10 12 5 11  
6 9 19 18 3 16 2 14 7 17 15 13 1 0 8 4 10 12 5 11  
6 9 16 3 19 18 14 7 17 15 13 1 0 2 8 4 10 12 5 11  
6 9 19 3 18 16 2 14 7 15 17 13 1 0 8 4 12 5 10 11  
6 9 19 3 18 16 2 14 7 17 15 13 1 0 12 4 8 5 10 11  
6 9 19 7 16 3 14 18 2 17 15 13 1 0 8 4 10 12 5 11  
6 9 16 3 19 18 14 7 17 15 13 1 0 2 8 4 10 12 5 11  
6 9 19 7 15 16 14 3 17 18 13 1 0 2 8 12 4 5 10 11  
6 9 19 18 3 16 2 14 7 15 17 13 1 0 12 4 8 5 10 11  
6 9 19 7 3 15 14 16 13 2 18 17 1 0 8 4 10 12 5 11  
6 9 16 3 19 18 14 7 15 17 13 1 0 2 8 4 10 12 5 11  
6 9 17 3 19 18 14 7 15 16 13 1 0 2 8 4 12 5 10 11  
6 9 19 7 16 14 3 18 2 17 15 13 1 0 8 5 12 4 10 11  
6 9 16 3 19 18 14 7 17 15 13 1 0 2 8 4 10 12 5 11  
6 7 16 9 15 18 17 13 2 3 1 19 14 0 8 4 10 12 5 11  
6 9 16 7 15 18 17 1 2 3 14 19 13 0 8 4 10 12 5 11  
6 9 16 7 15 18 17 1 2 3 14 19 13 0 8 4 10 12 5 11  
6 9 19 7 16 3 2 17 13 15 18 14 1 0 8 5 10 12 4 11  
9 19 3 6 16 7 2 17 13 18 14 1 15 0 8 4 10 12 5 11  
6 9 3 19 18 16 2 14 7 15 17 13 1 0 8 4 10 12 5 11  
6 18 7 16 2 9 17 13 3 15 14 1 0 19 8 4 10 12 5 11  
9 19 6 3 17 7 2 16 14 18 1 13 15 0 8 4 10 12 5 11  
6 9 17 13 3 15 18 1 7 16 2 19 14 0 8 4 12 5 10 11  
9 3 19 6 16 7 2 17 13 15 18 14 1 0 8 4 10 12 5 11  
6 7 19 3 17 18 14 9 15 16 13 1 0 2 8 4 12 5 10 11  
6 9 16 19 3 7 2 17 13 15 18 14 1 0 8 4 12 5 10 11  
6 9 16 7 15 18 17 13 2 1 3 14 19 0 8 4 10 12 5 11  
9 3 6 19 16 7 2 17 14 18 1 15 13 0 8 4 10 12 5 11  
6 9 3 19 18 16 2 14 7 15 17 13 1 0 8 4 12 5 10 11  
6 18 16 7 15 9 17 1 2 3 14 19 13 0 8 4 10 12 5 11  
6 9 19 7 16 14 3 18 2 17 15 13 1 0 8 5 12 4 10 11  
6 9 19 3 16 7 2 17 1 18 14 15 13 0 8 4 12 5 10 11  
9 19 6 3 16 7 2 17 1 15 18 14 13 0 8 4 10 12 5 11  
9 6 19 3 16 7 2 17 14 18 1 15 13 0 8 4 10 12 5 11  
6 9 19 3 16 7 2 17 1 18 14 15 13 0 8 4 12 5 10 11  
9 3 19 6 16 7 2 17 13 15 18 14 1 0 8 4 12 5 10 11  
6 9 19 7 15 16 14 3 17 18 13 1 0 2 8 4 12 5 10 11  
6 18 7 16 2 9 17 13 3 15 14 1 19 0 8 4 10 12 5 11  
9 19 6 13 3 15 16 14 7 17 18 1 0 2 8 4 10 12 5 11  
6 9 19 3 16 18 14 7 15 17 13 1 0 2 12 4 8 5 10 11  
6 3 19 9 16 7 2 17 13 15 18 14 1 0 8 4 10 12 5 11  
6 9 17 13 3 15 18 1 7 16 2 19 14 0 8 4 12 5 10 11  
6 9 16 19 3 7 2 17 13 15 18 14 1 0 8 5 12 4 10 11  
6 9 17 1 19 18 14 7 15 16 13 3 0 2 8 4 10 12 5 11  
6 9 19 18 3 2 16 14 7 15 17 13 1 0 8 4 12 5 10 11  
6 9 16 7 15 18 17 1 2 3 14 19 13 0 8 4 10 12 5 11  
6 18 16 7 15 9 17 1 3 13 2 19 14 0 8 4 12 5 10 11  
6 9 16 3 19 7 2 17 13 15 18 14 1 0 8 5 12 4 10 11  
6 9 19 7 16 3 14 18 2 17 1 15 13 0 8 4 10 12 5 11  
6 9 19 3 16 7 2 17 1 18 14 15 13 0 12 4 8 5 10 11  
9 3 19 6 16 7 2 17 13 15 18 14 1 0 8 4 10 12 5 11  
6 9 19 3 16 7 2 17 13 15 18 14 1 0 8 5 12 4 10 11  
6 9 19 18 3 16 2 17 7 14 15 13 1 0 8 4 12 5 10 11  
6 9 19 18 16 3 14 7 15 17 13 1 2 0 8 4 12 5 10 11  
6 9 19 3 18 16 2 14 7 15 17 13 1 0 8 4 12 5 10 11  
6 9 19 18 3 16 2 14 7 17 15 13 1 0 8 12 4 5 10 11  
6 9 19 7 16 14 3 18 2 17 15 13 1 0 12 4 8 5 10 11  
6 9 19 18 3 16 2 14 7 15 13 17 1 0 12 4 8 5 10 11  
6 9 19 18 16 3 14 7 15 17 13 1 2 0 8 5 12 4 10 11  
6 18 16 7 15 9 17 1 13 19 2 3 14 0 8 4 10 12 5 11  
6 9 3 19 16 7 2 17 15 13 18 14 1 0 8 4 12 5 10 11  
6 9 17 13 3 15 18 1 7 16 2 19 14 0 8 12 4 5 10 11  
6 9 16 19 3 18 2 14 7 15 17 13 1 0 8 4 12 5 10 11  
6 9 19 18 3 16 2 14 7 15 17 13 1 0 12 4 8 5 10 11  
